% seed = 0

mint = 40;
% maxt = 157;

nActs = 62;
dur = [0,3,1,5,2,3,3,1,3,4,3,2,2,1,1,3,1,3,4,3,1,1,4,3,3,4,2,3,5,3,4,4,3,2,4,2,3,3,3,1,1,2,1,1,2,4,2,5,3,3,2,1,2,5,2,2,2,3,3,3,2,0];

nSkills = 12;
sreq = [| 0,0,0,0,0,0,0,0,0,0,0,0,
	| 0,0,0,0,0,2,1,0,1,0,1,0,
	| 0,0,0,0,0,1,1,0,1,2,1,0,
	| 1,0,0,0,0,1,0,0,0,0,2,0,
	| 0,0,0,0,1,0,0,1,0,0,3,0,
	| 0,0,0,0,0,0,0,1,1,0,0,0,
	| 0,0,1,0,0,1,0,0,1,0,0,0,
	| 0,0,0,1,0,1,0,1,1,0,1,0,
	| 0,0,0,0,1,1,0,2,1,0,1,0,
	| 0,0,0,0,0,0,0,0,1,0,0,0,
	| 0,0,0,0,1,0,0,0,0,0,0,0,
	| 0,0,1,0,0,0,0,0,2,0,1,0,
	| 0,0,0,0,0,0,1,1,0,0,1,0,
	| 0,0,0,0,0,0,0,0,1,0,0,0,
	| 0,0,1,0,1,0,0,0,1,0,1,0,
	| 0,0,0,0,0,1,0,0,1,0,0,0,
	| 0,0,0,0,0,1,0,0,1,0,1,0,
	| 0,0,0,0,0,0,0,1,0,0,1,1,
	| 0,1,0,0,1,1,0,1,2,0,0,0,
	| 1,0,0,1,0,2,0,1,0,1,1,0,
	| 0,0,0,1,1,1,0,1,1,1,0,0,
	| 0,0,0,0,1,0,1,0,0,0,0,0,
	| 1,0,0,0,0,3,0,1,1,0,1,0,
	| 0,0,0,0,0,1,0,1,1,0,1,0,
	| 0,0,0,1,2,2,0,2,0,0,0,0,
	| 0,0,0,0,1,0,1,0,1,2,1,0,
	| 0,0,0,0,0,0,1,1,0,0,1,0,
	| 0,1,0,0,0,2,0,0,1,0,1,0,
	| 0,0,1,0,1,1,0,1,2,0,0,0,
	| 0,0,1,0,0,2,0,1,1,0,1,0,
	| 0,0,0,0,0,2,0,0,0,0,0,0,
	| 0,0,0,0,0,3,0,0,2,1,0,0,
	| 0,1,0,0,1,1,0,0,0,0,1,0,
	| 0,1,0,0,0,2,0,0,0,0,1,0,
	| 0,0,1,0,1,1,0,0,2,0,1,0,
	| 0,0,0,0,1,0,0,0,0,0,0,0,
	| 0,0,0,0,0,0,0,1,0,0,0,0,
	| 0,0,0,1,0,0,1,0,3,0,0,0,
	| 0,0,0,0,2,0,0,1,0,0,0,0,
	| 0,0,0,0,1,1,1,0,0,1,1,0,
	| 0,0,0,1,1,0,0,1,1,1,2,0,
	| 0,0,0,0,0,1,0,0,0,1,0,0,
	| 0,0,0,2,0,1,0,0,1,0,2,0,
	| 0,1,1,0,1,0,0,1,1,1,1,0,
	| 0,1,0,0,1,0,0,0,1,0,1,0,
	| 0,0,0,1,0,1,0,0,2,1,2,0,
	| 0,0,0,1,0,1,0,0,2,0,0,0,
	| 0,0,0,0,2,1,1,1,0,1,0,0,
	| 0,0,0,1,1,2,0,0,1,1,1,0,
	| 0,0,0,0,0,1,1,0,0,0,1,0,
	| 0,0,0,0,1,0,0,0,0,0,0,0,
	| 0,0,0,2,0,0,1,0,1,0,1,0,
	| 0,0,1,0,1,1,0,0,3,0,1,0,
	| 0,0,0,0,0,0,0,0,1,0,0,0,
	| 1,0,0,0,1,3,0,1,1,0,0,0,
	| 0,0,0,0,0,1,0,0,1,0,1,0,
	| 0,0,0,0,0,1,0,0,0,0,0,0,
	| 0,0,0,0,1,1,1,1,0,2,0,0,
	| 0,0,0,0,0,1,0,0,1,1,1,0,
	| 0,0,0,0,0,1,0,0,1,1,1,0,
	| 0,0,0,0,0,1,0,0,2,1,1,0,
	| 0,0,0,0,0,0,0,0,0,0,0,0, |];

% SumOfsreq = 257;

nResources = 22;
mastery = [| false,false,false,false,false,false,false,false,false,true,true,true,
	| false,false,false,false,false,false,false,true,true,false,false,false,
	| false,false,false,false,false,false,true,true,true,false,false,false,
	| false,false,false,false,false,false,false,false,false,false,true,true,
	| false,false,false,false,false,false,false,false,true,false,false,false,
	| false,false,false,true,true,true,true,true,true,true,true,true,
	| false,false,false,false,false,false,false,false,false,false,true,true,
	| false,false,false,false,true,true,false,false,false,false,false,false,
	| false,false,false,false,false,true,false,false,false,false,false,false,
	| false,false,false,false,true,true,false,false,false,false,false,false,
	| false,false,false,true,true,true,false,false,true,false,false,false,
	| false,false,false,true,true,true,false,false,false,false,false,false,
	| false,false,false,true,true,true,false,false,false,false,true,true,
	| false,false,false,false,false,false,false,false,false,true,true,true,
	| true,true,true,false,false,false,false,false,false,false,false,false,
	| false,false,false,false,false,false,false,false,true,true,true,true,
	| false,false,false,false,false,false,false,false,false,true,true,true,
	| false,false,false,false,false,true,false,false,false,false,false,false,
	| false,false,true,false,false,false,true,true,true,false,false,false,
	| false,false,false,false,false,false,false,true,true,false,false,false,
	| false,false,false,false,true,true,false,false,false,false,false,false,
	| false,false,false,false,false,false,false,true,true,false,false,false, |];

nPrecs = 131;
pred = [1,1,1,2,2,2,3,3,3,4,4,4,5,5,5,6,6,6,7,7,7,8,8,8,9,9,10,10,10,11,11,11,12,12,12,13,13,14,14,15,16,16,16,17,17,17,18,18,19,19,19,20,20,20,21,21,21,22,22,22,23,24,24,24,25,25,25,26,26,27,27,28,28,28,29,29,29,30,30,30,31,31,31,32,32,33,33,33,34,34,34,35,36,36,36,37,37,37,38,39,40,41,41,41,42,42,43,43,44,45,45,46,47,48,48,49,50,51,51,52,52,53,54,55,55,56,57,58,59,60,61];
succ = [2,3,4,13,5,8,17,12,7,18,15,16,9,10,6,44,32,16,44,28,21,34,11,38,34,47,26,23,24,25,20,54,19,35,14,51,16,15,48,49,41,57,23,38,31,48,37,21,25,26,22,22,31,32,59,23,40,43,36,46,42,53,46,39,49,43,46,27,32,28,31,33,29,30,41,34,37,41,42,40,43,47,39,36,56,45,37,47,36,54,55,42,48,53,40,51,38,39,50,55,61,50,52,45,50,45,51,44,57,60,54,52,57,49,60,58,58,52,53,60,55,59,56,59,56,58,61,61,62,62,62];

nUnrels = 920;
unpred = [2,2,2,2,2,2,2,2,2,2,2,3,3,3,3,3,3,3,3,3,3,3,3,4,4,4,4,4,4,4,4,4,4,4,4,4,4,4,4,4,4,4,4,4,4,4,4,4,4,4,4,4,4,4,4,5,5,5,5,5,5,5,5,5,5,5,5,5,5,5,6,6,6,6,6,6,6,6,6,6,6,6,6,6,6,6,6,6,6,6,6,6,6,6,6,6,6,6,6,6,6,6,6,7,7,7,7,7,7,7,7,7,7,7,7,7,7,7,7,7,7,7,7,7,7,7,8,8,8,8,8,8,8,8,8,8,8,8,8,8,8,8,8,8,8,8,8,8,8,8,9,9,9,9,9,9,9,9,9,9,9,9,9,9,9,9,9,9,9,9,9,9,9,9,9,9,9,9,9,9,9,9,9,9,9,9,9,10,10,10,10,10,10,10,10,10,10,10,10,10,10,11,11,11,11,11,11,11,11,11,11,11,11,11,11,11,11,11,11,11,11,11,11,11,11,11,12,12,12,12,12,12,12,12,13,13,13,13,13,13,13,13,13,13,13,13,13,13,13,13,13,13,13,13,13,13,13,13,13,13,13,13,13,13,13,14,14,14,14,14,14,14,14,14,14,14,14,14,14,14,14,14,14,14,14,14,14,14,14,14,14,14,14,14,14,14,14,14,14,14,14,14,14,14,14,14,15,15,15,15,15,15,15,15,15,15,15,15,15,15,15,15,15,15,15,15,15,15,15,15,15,15,15,15,15,15,15,15,15,15,15,15,15,15,15,15,15,15,15,16,16,16,16,16,16,16,16,16,16,16,16,16,16,16,16,16,16,16,16,16,16,16,16,16,16,16,16,16,16,16,17,17,17,17,17,17,17,17,17,17,17,17,17,17,17,17,17,17,17,17,17,17,17,17,17,18,18,18,18,18,18,18,18,18,18,18,18,18,18,18,18,18,18,18,18,18,18,18,18,19,19,19,19,19,20,20,20,20,20,20,20,20,20,20,20,20,20,20,20,20,20,20,20,21,21,21,21,21,21,21,21,21,21,21,21,21,21,21,21,21,21,21,21,21,21,21,21,21,21,21,21,21,22,22,22,22,22,22,22,22,22,22,22,22,22,22,22,22,22,22,22,22,22,22,23,23,23,23,23,23,23,23,23,23,23,23,23,23,23,23,23,23,23,23,23,23,23,23,23,23,23,23,23,23,24,24,24,24,24,24,24,24,24,24,24,24,24,24,24,24,24,24,24,24,24,24,24,24,24,24,24,25,25,25,25,25,25,25,25,25,25,25,25,25,25,25,25,25,25,25,25,25,25,26,26,27,27,27,28,28,28,28,28,28,29,29,29,29,29,29,29,29,29,29,29,30,30,30,30,30,30,30,30,30,30,30,30,30,30,30,30,30,30,31,31,31,31,31,31,31,31,31,31,31,31,31,31,31,31,32,32,32,32,32,32,32,32,32,32,32,32,32,32,32,32,32,32,32,33,33,33,33,33,33,33,33,33,33,33,34,34,34,34,34,34,34,34,34,34,34,34,34,34,34,35,35,35,35,35,35,35,35,35,35,35,35,35,35,35,35,35,35,36,36,36,36,36,36,36,36,36,36,36,36,36,36,36,36,36,37,37,37,37,37,37,37,37,37,37,37,37,38,38,38,38,38,38,38,38,38,38,38,38,38,38,38,38,38,38,38,38,39,39,39,39,39,39,39,39,39,39,39,39,39,39,39,39,39,40,40,40,40,40,40,40,40,40,40,40,40,40,40,40,40,40,40,40,40,41,41,41,41,41,41,41,41,41,41,42,42,42,42,42,42,42,42,42,42,42,42,43,43,43,43,43,43,43,44,44,44,44,44,44,44,44,44,44,44,44,44,44,44,45,45,45,45,45,45,45,45,45,45,45,46,46,46,46,46,46,46,46,47,47,47,47,47,47,47,47,47,47,47,47,48,48,48,48,48,48,48,48,48,49,49,49,49,49,49,49,49,49,49,50,50,50,50,50,50,50,50,50,51,51,52,52,52,53,53,53,53,53,53,53,54,54,54,54,55,55,56,56,56,57,57,57,58,58,59,59,60];
unsucc = [3,4,7,12,14,15,17,18,19,21,35,4,5,6,8,9,10,11,13,16,18,20,24,5,6,7,8,9,10,11,12,13,14,17,19,20,22,24,25,26,27,28,29,30,31,32,33,34,35,36,43,44,46,47,48,7,8,11,12,13,14,15,17,18,19,20,21,22,25,35,7,8,9,10,11,12,13,14,15,17,18,19,20,21,22,24,25,26,27,28,29,30,31,33,34,35,37,38,39,43,46,47,51,8,9,10,11,12,13,14,15,16,17,18,19,20,22,24,25,26,27,31,32,35,43,46,9,10,12,13,14,15,16,17,18,19,21,23,24,26,27,28,29,30,33,35,37,41,42,45,10,11,12,13,14,15,16,17,18,19,20,21,22,23,24,25,26,27,28,29,30,31,32,33,35,37,38,39,41,42,43,44,45,46,50,51,52,11,12,13,14,15,16,17,18,19,20,21,22,25,35,12,13,14,15,16,17,18,19,21,23,24,26,27,28,29,30,33,34,35,37,38,41,42,45,50,13,16,17,18,20,21,23,24,14,15,17,18,19,20,21,22,24,25,26,27,28,29,30,31,32,33,34,35,36,37,38,39,40,43,44,46,47,48,49,16,17,18,19,20,21,22,23,24,25,26,27,28,29,30,31,32,33,34,35,36,37,38,39,40,41,42,43,44,45,46,47,50,51,52,53,54,55,56,57,59,16,17,18,19,20,21,22,23,24,25,26,27,28,29,30,31,32,33,34,35,36,37,38,39,40,41,42,43,44,45,46,47,48,50,51,52,53,54,55,56,57,59,60,17,18,19,20,21,22,24,25,26,27,28,29,30,31,32,33,34,35,36,37,38,39,40,43,44,46,47,48,49,51,53,18,19,20,21,22,23,24,25,26,27,28,29,30,32,33,34,35,36,37,40,41,42,45,46,54,19,20,22,24,25,26,27,28,29,30,31,32,33,34,35,36,41,43,44,46,47,48,49,57,20,21,23,24,35,21,23,24,25,26,27,28,29,30,33,34,35,37,38,41,42,45,50,54,22,24,25,26,27,28,29,30,31,32,33,34,35,36,37,38,39,41,43,44,46,47,48,49,51,52,53,55,57,23,24,25,26,27,28,29,30,31,32,33,34,35,37,38,39,41,42,45,47,50,54,24,25,26,27,28,29,30,31,32,33,34,35,36,37,38,39,40,41,43,44,46,47,48,49,51,52,53,55,57,59,25,26,27,28,29,30,31,32,33,34,35,36,37,38,40,41,42,43,44,45,47,48,49,50,51,54,57,26,27,28,29,30,31,32,33,34,35,36,37,38,39,40,41,42,45,47,48,50,54,35,46,32,35,46,31,32,35,43,44,46,30,31,32,33,35,42,43,44,46,47,57,31,32,33,34,35,36,37,38,39,43,44,46,47,48,49,51,53,57,32,33,34,35,36,37,38,40,41,42,45,46,48,49,50,54,33,34,35,37,38,39,41,42,43,44,45,46,47,50,51,52,54,55,57,34,35,36,40,41,42,43,44,46,48,49,35,37,38,39,41,42,43,44,45,46,47,50,51,52,57,36,37,38,39,40,41,43,44,46,47,48,49,51,52,53,55,57,59,37,38,39,41,42,43,44,45,46,47,50,51,52,54,55,56,57,40,41,42,43,44,45,46,47,48,49,54,57,39,40,41,42,43,44,45,46,47,48,49,51,52,53,54,55,56,57,59,60,40,41,42,43,44,45,46,47,48,49,50,51,52,53,54,57,60,41,42,43,44,45,46,47,48,49,50,51,52,53,54,55,56,57,58,59,60,42,43,44,46,47,48,49,51,53,57,43,44,46,47,48,49,51,52,53,55,57,59,45,46,47,48,49,50,54,45,46,47,48,49,50,51,52,53,54,55,56,58,59,60,46,47,48,49,50,51,52,53,55,57,59,47,48,49,50,51,53,54,57,48,49,50,51,52,53,54,55,56,58,59,60,50,51,52,53,54,55,56,57,59,50,51,52,53,54,55,56,57,59,60,51,52,53,54,55,56,57,59,60,54,57,53,54,57,54,55,56,57,58,60,61,55,57,59,60,57,60,57,59,60,58,59,60,59,60,60,61,61];

USEFUL_RES = [{},
	{1,2,3,4,5,6,7,8,9,10,11,12,13,14,16,17,18,19,20,21,22},
	{1,2,3,4,5,6,7,8,9,10,11,12,13,14,16,17,18,19,20,21,22},
	{1,4,6,7,8,9,10,11,12,13,14,15,16,17,18,21},
	{1,2,3,4,6,7,8,10,11,12,13,14,16,17,19,20,21,22},
	{2,3,5,6,11,16,19,20,22},
	{2,3,5,6,8,9,10,11,12,13,15,16,18,19,20,21,22},
	{1,2,3,4,5,6,7,8,9,10,11,12,13,14,16,17,18,19,20,21,22},
	{1,2,3,4,5,6,7,8,9,10,11,12,13,14,16,17,18,19,20,21,22},
	{2,3,5,6,11,16,19,20,22},
	{6,8,10,11,12,13,21},
	{1,2,3,4,5,6,7,11,13,14,15,16,17,19,20,22},
	{1,2,3,4,6,7,13,14,16,17,19,20,22},
	{2,3,5,6,11,16,19,20,22},
	{1,2,3,4,5,6,7,8,10,11,12,13,14,15,16,17,19,20,21,22},
	{2,3,5,6,8,9,10,11,12,13,16,18,19,20,21,22},
	{1,2,3,4,5,6,7,8,9,10,11,12,13,14,16,17,18,19,20,21,22},
	{1,2,3,4,6,7,13,14,16,17,19,20,22},
	{2,3,5,6,8,9,10,11,12,13,15,16,18,19,20,21,22},
	{1,2,3,4,6,7,8,9,10,11,12,13,14,15,16,17,18,19,20,21,22},
	{1,2,3,5,6,8,9,10,11,12,13,14,16,17,18,19,20,21,22},
	{3,6,8,10,11,12,13,19,21},
	{1,2,3,4,5,6,7,8,9,10,11,12,13,14,15,16,17,18,19,20,21,22},
	{1,2,3,4,5,6,7,8,9,10,11,12,13,14,16,17,18,19,20,21,22},
	{2,3,6,8,9,10,11,12,13,18,19,20,21,22},
	{1,2,3,4,5,6,7,8,10,11,12,13,14,16,17,19,20,21,22},
	{1,2,3,4,6,7,13,14,16,17,19,20,22},
	{1,2,3,4,5,6,7,8,9,10,11,12,13,14,15,16,17,18,19,20,21,22},
	{2,3,5,6,8,9,10,11,12,13,15,16,18,19,20,21,22},
	{1,2,3,4,5,6,7,8,9,10,11,12,13,14,15,16,17,18,19,20,21,22},
	{6,8,9,10,11,12,13,18,21},
	{1,2,3,5,6,8,9,10,11,12,13,14,16,17,18,19,20,21,22},
	{1,4,6,7,8,9,10,11,12,13,14,15,16,17,18,21},
	{1,4,6,7,8,9,10,11,12,13,14,15,16,17,18,21},
	{1,2,3,4,5,6,7,8,9,10,11,12,13,14,15,16,17,18,19,20,21,22},
	{6,8,10,11,12,13,21},
	{2,3,6,19,20,22},
	{2,3,5,6,11,12,13,16,19,20,22},
	{2,3,6,8,10,11,12,13,19,20,21,22},
	{1,3,4,6,7,8,9,10,11,12,13,14,16,17,18,19,21},
	{1,2,3,4,5,6,7,8,10,11,12,13,14,16,17,19,20,21,22},
	{1,6,8,9,10,11,12,13,14,16,17,18,21},
	{1,2,3,4,5,6,7,8,9,10,11,12,13,14,16,17,18,19,20,21,22},
	{1,2,3,4,5,6,7,8,10,11,12,13,14,15,16,17,19,20,21,22},
	{1,2,3,4,5,6,7,8,10,11,12,13,14,15,16,17,19,20,21,22},
	{1,2,3,4,5,6,7,8,9,10,11,12,13,14,16,17,18,19,20,21,22},
	{2,3,5,6,8,9,10,11,12,13,16,18,19,20,21,22},
	{1,2,3,6,8,9,10,11,12,13,14,16,17,18,19,20,21,22},
	{1,2,3,4,5,6,7,8,9,10,11,12,13,14,16,17,18,19,20,21,22},
	{1,3,4,6,7,8,9,10,11,12,13,14,16,17,18,19,21},
	{6,8,10,11,12,13,21},
	{1,2,3,4,5,6,7,11,12,13,14,16,17,19,20,22},
	{1,2,3,4,5,6,7,8,9,10,11,12,13,14,15,16,17,18,19,20,21,22},
	{2,3,5,6,11,16,19,20,22},
	{2,3,5,6,8,9,10,11,12,13,15,16,18,19,20,21,22},
	{1,2,3,4,5,6,7,8,9,10,11,12,13,14,16,17,18,19,20,21,22},
	{6,8,9,10,11,12,13,18,21},
	{1,2,3,6,8,9,10,11,12,13,14,16,17,18,19,20,21,22},
	{1,2,3,4,5,6,7,8,9,10,11,12,13,14,16,17,18,19,20,21,22},
	{1,2,3,4,5,6,7,8,9,10,11,12,13,14,16,17,18,19,20,21,22},
	{1,2,3,4,5,6,7,8,9,10,11,12,13,14,16,17,18,19,20,21,22},
	{}];

POTENTIAL_ACT = [{2,3,4,5,8,9,12,13,15,17,18,20,21,23,24,26,27,28,30,32,33,34,35,40,41,42,43,44,45,46,48,49,50,52,53,56,58,59,60,61},
	{2,3,5,6,7,8,9,10,12,13,14,15,16,17,18,19,20,21,23,24,25,26,27,28,29,30,32,35,37,38,39,41,43,44,45,46,47,48,49,52,53,54,55,56,58,59,60,61},
	{2,3,5,6,7,8,9,10,12,13,14,15,16,17,18,19,20,21,22,23,24,25,26,27,28,29,30,32,35,37,38,39,40,41,43,44,45,46,47,48,49,50,52,53,54,55,56,58,59,60,61},
	{2,3,4,5,8,9,12,13,15,17,18,20,23,24,26,27,28,30,33,34,35,40,41,43,44,45,46,49,50,52,53,56,59,60,61},
	{2,3,6,7,8,9,10,12,14,15,16,17,19,21,23,24,26,28,29,30,32,35,38,41,43,44,45,46,47,49,52,53,54,55,56,59,60,61},
	{2,3,4,5,6,7,8,9,10,11,12,13,14,15,16,17,18,19,20,21,22,23,24,25,26,27,28,29,30,31,32,33,34,35,36,37,38,39,40,41,42,43,44,45,46,47,48,49,50,51,52,53,54,55,56,57,58,59,60,61},
	{2,3,4,5,8,9,12,13,15,17,18,20,23,24,26,27,28,30,33,34,35,40,41,43,44,45,46,49,50,52,53,56,59,60,61},
	{2,3,4,5,7,8,9,11,15,16,17,19,20,21,22,23,24,25,26,28,29,30,31,32,33,34,35,36,39,40,41,42,43,44,45,46,47,48,49,50,51,53,55,56,57,58,59,60,61},
	{2,3,4,7,8,9,16,17,19,20,21,23,24,25,28,29,30,31,32,33,34,35,40,42,43,46,47,48,49,50,53,55,56,57,58,59,60,61},
	{2,3,4,5,7,8,9,11,15,16,17,19,20,21,22,23,24,25,26,28,29,30,31,32,33,34,35,36,39,40,41,42,43,44,45,46,47,48,49,50,51,53,55,56,57,58,59,60,61},
	{2,3,4,5,6,7,8,9,10,11,12,14,15,16,17,19,20,21,22,23,24,25,26,28,29,30,31,32,33,34,35,36,38,39,40,41,42,43,44,45,46,47,48,49,50,51,52,53,54,55,56,57,58,59,60,61},
	{2,3,4,5,7,8,9,11,15,16,17,19,20,21,22,23,24,25,26,28,29,30,31,32,33,34,35,36,38,39,40,41,42,43,44,45,46,47,48,49,50,51,52,53,55,56,57,58,59,60,61},
	{2,3,4,5,7,8,9,11,12,13,15,16,17,18,19,20,21,22,23,24,25,26,27,28,29,30,31,32,33,34,35,36,38,39,40,41,42,43,44,45,46,47,48,49,50,51,52,53,55,56,57,58,59,60,61},
	{2,3,4,5,8,9,12,13,15,17,18,20,21,23,24,26,27,28,30,32,33,34,35,40,41,42,43,44,45,46,48,49,50,52,53,56,58,59,60,61},
	{4,7,12,15,19,20,23,28,29,30,33,34,35,44,45,53,55},
	{2,3,4,5,6,7,8,9,10,12,13,14,15,16,17,18,19,20,21,23,24,26,27,28,29,30,32,33,34,35,38,40,41,42,43,44,45,46,47,48,49,50,52,53,54,55,56,58,59,60,61},
	{2,3,4,5,8,9,12,13,15,17,18,20,21,23,24,26,27,28,30,32,33,34,35,40,41,42,43,44,45,46,48,49,50,52,53,56,58,59,60,61},
	{2,3,4,7,8,9,16,17,19,20,21,23,24,25,28,29,30,31,32,33,34,35,40,42,43,46,47,48,49,50,53,55,56,57,58,59,60,61},
	{2,3,5,6,7,8,9,10,12,13,14,15,16,17,18,19,20,21,22,23,24,25,26,27,28,29,30,32,35,37,38,39,40,41,43,44,45,46,47,48,49,50,52,53,54,55,56,58,59,60,61},
	{2,3,5,6,7,8,9,10,12,13,14,15,16,17,18,19,20,21,23,24,25,26,27,28,29,30,32,35,37,38,39,41,43,44,45,46,47,48,49,52,53,54,55,56,58,59,60,61},
	{2,3,4,5,7,8,9,11,15,16,17,19,20,21,22,23,24,25,26,28,29,30,31,32,33,34,35,36,39,40,41,42,43,44,45,46,47,48,49,50,51,53,55,56,57,58,59,60,61},
	{2,3,5,6,7,8,9,10,12,13,14,15,16,17,18,19,20,21,23,24,25,26,27,28,29,30,32,35,37,38,39,41,43,44,45,46,47,48,49,52,53,54,55,56,58,59,60,61}];
